[runlim] version:		2.0.0rc12
[runlim] host:			ap-Precision-7550
[runlim] time limit:		311040000 seconds
[runlim] real time limit:	600 seconds
[runlim] space limit:		14000 MB
[runlim] argv[0]:		python3
[runlim] argv[1]:		cp_no.py
[runlim] argv[2]:		scen07
[runlim] start:			Wed Mar 25 06:10:49 2026
[runlim] child:			76232
--- Building model for 400 variables ---
--- Solving with CP Optimizer (Integer Mode) ---
 ! --------------------------------------------------- CP Optimizer 22.1.1.0 --
 ! Minimization problem - 400 variables, 2865 constraints
 ! LogVerbosity         = Terse
 ! Initial process time : 0.01s (0.01s extraction + 0.00s propagation)
 !  . Log search space  : 2122.5 (before), 2122.5 (after)
 !  . Memory usage      : 1.3 MB (before), 1.3 MB (after)
 ! Using parallel search with 12 workers.
 ! ----------------------------------------------------------------------------
 !          Best Branches  Non-fixed    W       Branch decision
                        0        400                 -
 + New bound is 0
 ! ----------------------------------------------------------------------------
 ! Search completed, model has no solution.
 ! Best bound             : 0
 ! ----------------------------------------------------------------------------
 ! Number of branches     : 0
 ! Number of fails        : 0
 ! Total memory usage     : 7.0 MB (6.7 MB CP Optimizer + 0.3 MB Concert)
 ! Time spent in solve    : 0.01s (0.00s engine + 0.01s extraction)
 ! ----------------------------------------------------------------------------
No valid solution: Infeasible
Total time: 0.10s
Memory used: 28.33 MB
[runlim] end:			Wed Mar 25 06:10:50 2026
[runlim] status:		ok
[runlim] result:		0
[runlim] children:		2
[runlim] processes:		3
[runlim] real:			0.18 seconds
[runlim] time:			0.10 seconds
[runlim] space:			45 MB
[runlim] load:			8.65 maximum
[runlim] samples:		2
